802
1445
174
538
812
1944
306
248
924
290
811
2119
749
148
175
1732
1087
732
1568
802
127
957
1260
1747
979
1906
616
2060
862
2012
2091
983
999
1222
1543
1163
1107
1953
689
891
886
2145
1870
317
479
2073
1031
118
1194
2078
